Water Network: 9
Results smooth approximation 1 of Hazen--Williams headloss constraint

*******************************************************************************
wdnmodel.mod

-------------------------------- Solving with gurobi --------------------------
Gurobi 12.0.3: Set parameter LogToConsole to value 1
  tech:outlev = 1
  tech:outlev_mp = 1
Set parameter Presolve to value 1
  pre:solve = 1
Set parameter Aggregate to value 1
  pre:aggregate = 1
Set parameter TimeLimit to value 600
  lim:time = 600
Set parameter NumericFocus to value 1
  alg:numericfocus = 1
Set parameter OBBT to value 0
  mip:obbt = 0
Set parameter ScaleFlag to value 1
  pre:scale = 1
Set parameter Method to value 2
  alg:method = 2
Set parameter NodeMethod to value 1
  mip:nodemethod = 1
Set parameter NonConvex to value 2
  qp:nonconvex = 2
Set parameter MIPFocus to value 1
  mip:focus = 1
Set parameter NLPHeur to value 1
  alg:nlpheur = 1
Set parameter VarBranch to value 0
  mip:varbranch = 0
Set parameter MIPGapAbs to value 1e-05
  mip:gapabs = 1.0000000000000001e-05
Set parameter MIPGap to value 1e-06
  mip:gap = 9.9999999999999995e-07
Set parameter FeasibilityTol to value 1e-05
  alg:feastol = 1.0000000000000001e-05
  cvt:pre:feastol = 1.0000000000000001e-05
  cvt:pre:feastolrel = 9.9999999999999995e-07
  sol:chk:feastol = 1.0000000000000001e-05
  sol:chk:feastolrel = 9.9999999999999995e-07

AMPL MP initial flat model has 500 variables (0 integer, 0 binary);
Objectives: 1 linear; 
Constraints:  94 linear; 116 quadratic;
Algebraic expressions:  58 abs; 58 powconstexp;

AMPL MP final model has 732 variables (0 integer, 0 binary);
Objectives: 1 linear; 
Constraints:  152 linear; 116 quadratic;
Algebraic expressions:  58 abs; 58 powconstexp;


Set parameter InfUnbdInfo to value 1
Gurobi Optimizer version 12.0.3 build v12.0.3rc0 (linux64 - "Debian GNU/Linux 12 (bookworm)")

CPU model: INTEL(R) XEON(R) GOLD 6530, instruction set [SSE2|AVX|AVX2|AVX512]
Thread count: 32 physical cores, 64 logical processors, using up to 32 threads

Non-default parameters:
TimeLimit  600
FeasibilityTol  1e-05
MIPGap  1e-06
MIPGapAbs  1e-05
Method  2
ScaleFlag  1
MIPFocus  1
NodeMethod  1
OBBT  0
VarBranch  0
InfUnbdInfo  1
NonConvex  2
NumericFocus  1
Presolve  1

Optimize a model with 152 rows, 732 columns and 694 nonzeros
Model fingerprint: 0x2c09558a
Model has 58 simple general constraints
  58 ABS
Model has 58 general nonlinear constraints (1218 nonlinear terms)
Variable types: 732 continuous, 0 integer (0 binary)
Coefficient statistics:
  Matrix range     [1e+00, 1e+00]
  Objective range  [7e+03, 1e+05]
  Bounds range     [2e-03, 2e+03]
  RHS range        [3e-04, 4e+02]
Presolve model has 58 nlconstr
Added 870 variables to disaggregate expressions.
Presolve added 231 rows and 57 columns
Presolve time: 0.02s
Presolved: 2993 rows, 1718 columns, 6956 nonzeros
Presolved model has 464 bilinear constraint(s)
Presolved model has 58 nonlinear constraint(s)

Solving non-convex MINLP

Variable types: 1660 continuous, 58 integer (58 binary)
Root barrier log...

Ordering time: 0.00s

Barrier statistics:
 AA' NZ     : 1.752e+04
 Factor NZ  : 3.386e+04 (roughly 2 MB of memory)
 Factor Ops : 5.786e+05 (less than 1 second per iteration)
 Threads    : 1

                  Objective                Residual
Iter       Primal          Dual         Primal    Dual     Compl     Time
   0   5.10432444e+09 -2.35674406e+09  1.84e+03 0.00e+00  4.76e+06     6s
   1   7.77282545e+08 -5.21858673e+08  2.91e+02 2.91e-11  7.54e+05     6s
   2   1.59641867e+08 -3.92123156e+07  2.39e+01 5.92e+00  7.71e+04     6s
   3   6.89888317e+07  3.01275822e+07  1.20e+00 1.24e+00  1.00e+04     6s
   4   5.90577493e+07  4.84800113e+07  6.57e-02 2.91e-11  2.40e+03     6s
   5   5.81708187e+07  5.75035350e+07  9.95e-03 6.37e-11  1.58e+02     6s
   6   5.80659252e+07  5.76623209e+07  5.76e-03 5.09e-11  9.46e+01     6s
   7   5.80172947e+07  5.78477516e+07  3.88e-03 5.09e-11  4.05e+01     6s
   8   5.79462945e+07  5.78793339e+07  1.13e-03 6.18e-11  1.55e+01     6s
   9   5.79207320e+07  5.79121701e+07  1.60e-04 6.59e-11  1.96e+00     6s
  10   5.79171597e+07  5.79163212e+07  2.85e-05 5.71e-11  1.99e-01     6s
  11   5.79163762e+07  5.79163753e+07  9.77e-09 4.28e-11  1.90e-04     7s
  12   5.79163754e+07  5.79163754e+07  5.57e-12 5.23e-11  2.34e-08     7s
  13   5.79163754e+07  5.79163754e+07  1.18e-11 5.46e-11  1.71e-11     7s

Barrier solved model in 13 iterations and 6.52 seconds (0.24 work units)
Optimal objective 5.79163754e+07


Root crossover log...

     481 DPushes remaining with DInf 0.0000000e+00                 7s
       0 DPushes remaining with DInf 0.0000000e+00                 7s

     171 PPushes remaining with PInf 0.0000000e+00                 7s
       0 PPushes remaining with PInf 0.0000000e+00                 7s

  Push phase complete: Pinf 0.0000000e+00, Dinf 0.0000000e+00      7s


Root simplex log...

Iteration    Objective       Primal Inf.    Dual Inf.      Time
     239    5.7916375e+07   0.000000e+00   0.000000e+00      7s
     239    5.7916375e+07   0.000000e+00   0.000000e+00      7s

Root relaxation: objective 5.791638e+07, 239 iterations, 0.24 seconds (0.02 work units)
Total elapsed time = 6.57s (DegenMoves)

    Nodes    |    Current Node    |     Objective Bounds      |     Work
 Expl Unexpl |  Obj  Depth IntInf | Incumbent    BestBd   Gap | It/Node Time

     0     0 5.7916e+07    0   86          - 5.7916e+07      -     -    6s
     0     0 5.7916e+07    0   74          - 5.7916e+07      -     -    6s
     0     0 5.7916e+07    0   74          - 5.7916e+07      -     -    6s
     0     2 5.7916e+07    0   74          - 5.7916e+07      -     -   18s
    95   230 5.7916e+07    7   67          - 5.7916e+07      -   152   20s
  2399  2665 6.1519e+07   48   71          - 5.7916e+07      -   137   26s
  5362  4492 6.4577e+07   40  109          - 5.7916e+07      -   124   31s
  7722  5325 6.6259e+07   50   29          - 5.7916e+07      -   121   37s
  7727  5328 7.6128e+07   50    0          - 5.7916e+07      -   121   79s
  7728  5332 5.7916e+07   13  109          - 5.7916e+07      -   122   88s
  7796  5401 5.8136e+07   18  104          - 5.7916e+07      -   121   90s
  9633  6962 6.1759e+07   43   80          - 5.7916e+07      -   116   95s
 10661  7135 6.1372e+07   41   80          - 5.7916e+07      -   116  105s
 13175  8750 6.0437e+07   62   72          - 5.7916e+07      -   114  110s
 17399 10931 8.8339e+07  122   84          - 5.7916e+07      -   107  116s
 20722 12502 9.3483e+07  159   94          - 5.7916e+07      -   105  122s
 23437 13492 6.3443e+07   52   86          - 5.7916e+07      -   105  127s
 25841 15219 7.8452e+07   74   80          - 5.7916e+07      -   107  131s
 29006 18008 6.3329e+07   54   91          - 5.7916e+07      -   106  137s
 31112 20073 7.3781e+07   93  110          - 5.7916e+07      -   105  141s
 35520 22836 6.0595e+07   50   94          - 5.7916e+07      -   102  146s
 37306 24473 6.3685e+07   63   97          - 5.7916e+07      -   102  150s
 41598 27666 6.7530e+07  115   94          - 5.7916e+07      -  99.4  156s
 46021 31383 6.8647e+07  157   97          - 5.7916e+07      -  96.9  161s
 51240 35770 7.0013e+07  184   92          - 5.7916e+07      -  92.9  167s
 53926 37552 7.1191e+07  196   97          - 5.7916e+07      -  91.2  170s
 58920 41321 7.2659e+07  221  102          - 5.7916e+07      -  89.6  176s
 63676 44634 6.7960e+07   57   96          - 5.7916e+07      -  89.2  183s
 65834 46116 7.1483e+07  100   94          - 5.7916e+07      -  89.6  187s
 67986 47420 7.2909e+07  121   90          - 5.7916e+07      -  89.8  191s
 69960 49081 7.3251e+07  124   90          - 5.7916e+07      -  90.7  195s
 75541 53793 5.7916e+07   33   77          - 5.7916e+07      -  90.3  204s
 78761 56227 7.2208e+07   50  107          - 5.7916e+07      -  89.8  209s
 82097 57078 5.8365e+07   43   76          - 5.7916e+07      -  89.0  219s
 83242 59708 6.6618e+07   65   88          - 5.7916e+07      -  89.2  224s
 86604 62102 5.9377e+07   61   73          - 5.7916e+07      -  89.0  228s
 89938 64610 6.2665e+07   90   88          - 5.7916e+07      -  88.9  234s
 93338 67653 7.4452e+07  119  106          - 5.7916e+07      -  89.0  239s
 97525 70075 7.7926e+07  151  108          - 5.7916e+07      -  88.2  244s
 100921 72212 8.2814e+07   65  113          - 5.7916e+07      -  88.2  249s
 104088 74603 6.3225e+07   60   76          - 5.7916e+07      -  88.4  254s
 107437 77013 6.1347e+07   46   63          - 5.7916e+07      -  88.2  260s
 110949 79041 5.7916e+07   42   98          - 5.7916e+07      -  88.0  265s
 114179 81064 6.2305e+07   56   78          - 5.7916e+07      -  87.9  270s
 117094 83670 7.0786e+07   96   81          - 5.7916e+07      -  87.7  275s
 120700 86640 infeasible   58               - 5.7916e+07      -  87.5  280s
 125048 87815 7.3687e+07  106  109          - 5.7916e+07      -  86.8  288s
 127045 90582 1.1298e+08  121  101          - 5.7916e+07      -  86.6  293s
 131024 93320 6.3142e+07   44   88          - 5.7916e+07      -  86.2  298s
 134642 95751 5.8778e+07   57   96          - 5.7916e+07      -  85.9  304s
 138075 97523 5.8798e+07   34   63          - 5.7916e+07      -  85.9  308s
 140847 99741 6.0894e+07   45   93          - 5.7916e+07      -  86.3  313s
 144073 101673 6.0634e+07   44   89          - 5.7916e+07      -  86.4  318s
 147065 102998 infeasible   54               - 5.7916e+07      -  86.7  323s
 149642 104442 infeasible   66               - 5.7916e+07      -  87.3  329s
 152120 105614 7.5402e+07   77  103          - 5.7916e+07      -  88.0  335s
 153868 108087 7.6731e+07   93  110          - 5.7916e+07      -  88.3  340s
 157347 110682 8.1869e+07  125  111          - 5.7916e+07      -  88.3  345s
 160824 112790 8.6951e+07  158  107          - 5.7916e+07      -  88.1  351s
 164153 114775 6.8724e+07   49   52          - 5.7916e+07      -  88.2  356s
 167034 116622 7.0041e+07   64  110          - 5.7916e+07      -  88.5  362s
 169959 118547 6.1295e+07   55  110          - 5.7916e+07      -  88.8  368s
 172860 119559 6.0631e+07   42   71          - 5.7916e+07      -  89.1  373s
 174428 121367 8.9890e+07   64  114          - 5.7916e+07      -  89.5  379s
 177162 123595 7.1910e+07   52   85          - 5.7916e+07      -  89.7  384s
 180298 126105 7.5158e+07   62  103          - 5.7916e+07      -  89.8  389s
 183622 128042 6.8130e+07   38   80          - 5.7916e+07      -  89.7  394s
 186527 130506 5.7916e+07   43   79          - 5.7916e+07      -  89.9  399s
 189841 132939 6.7995e+07   42   63          - 5.7916e+07      -  89.9  405s
 193254 134620 1.6919e+08   60  124          - 5.7916e+07      -  89.8  412s
 195667 137568 infeasible   50               - 5.7916e+07      -  89.6  417s
 199745 139946 7.5742e+07   47   88          - 5.7916e+07      -  89.2  422s
 203285 141563 6.5877e+07   44   91          - 5.7916e+07      -  89.1  428s
 206064 143225 6.2175e+07   43   76          - 5.7916e+07      -  89.4  433s
 208788 145563 5.8858e+07   40   75          - 5.7916e+07      -  89.7  438s
 212042 148207 7.0695e+07   66   88          - 5.7916e+07      -  89.7  443s
 215804 150567 7.9303e+07   58  119          - 5.7916e+07      -  89.1  448s
 219342 151666 7.1939e+07   71  101          - 5.7916e+07      -  88.7  454s
 221077 154354 7.2093e+07   84  109          - 5.7916e+07      -  88.7  459s
 224853 156793 infeasible   99               - 5.7916e+07      -  88.5  464s
 228444 159243 7.3385e+07   70  122          - 5.7916e+07      -  88.4  469s
 231974 161777 7.7936e+07   52  106          - 5.7916e+07      -  88.3  474s
 235643 164025 6.4704e+07   46   93          - 5.7916e+07      -  88.1  479s
 238969 166494 6.3298e+07   56   84          - 5.7916e+07      -  88.2  484s
 242300 167979 6.0258e+07   31   73          - 5.7916e+07      -  88.2  490s
 244319 170791 6.7064e+07   55   79          - 5.7916e+07      -  88.2  496s
 247955 173214 5.8864e+07   54   98          - 5.7916e+07      -  88.1  502s
 251270 175714 6.8429e+07   62   71          - 5.7916e+07      -  88.1  507s
 254742 178401 5.7916e+07   41   92          - 5.7916e+07      -  88.1  513s
 258517 180874 8.3710e+07   76   90          - 5.7916e+07      -  88.0  518s
 262122 183121 5.7916e+07   44   69          - 5.7916e+07      -  87.8  524s
 265495 184610 9.4875e+07   58   83          - 5.7916e+07      -  87.8  532s
 267768 186908 8.2514e+07   77   84          - 5.7916e+07      -  87.9  538s
 270952 188843 1.3395e+08  119   95          - 5.7916e+07      -  87.9  543s
 273933 191251 8.4098e+07   57   79          - 5.7916e+07      -  88.1  548s
 277491 193177 5.7916e+07   44   84          - 5.7916e+07      -  88.0  552s
 280739 195213 8.6751e+07   65   90          - 5.7916e+07      -  88.0  558s
 283975 197325 1.8668e+08   92  104          - 5.7916e+07      -  88.0  563s
 287081 198160 1.8366e+08  102  108          - 5.7916e+07      -  88.1  569s
 288676 199862 5.7916e+07   38   85          - 5.7916e+07      -  88.4  574s
 291286 201550 5.8935e+07   55  110          - 5.7916e+07      -  88.6  579s
 294198 203500 1.6933e+08   96   84          - 5.7916e+07      -  88.7  584s
 297240 205430 6.1336e+07   38   98          - 5.7916e+07      -  88.9  589s
 300140 207258 infeasible   44               - 5.7916e+07      -  89.0  594s
 303046 208219 infeasible   58               - 5.7916e+07      -  89.2  599s
 304633 208490 6.8586e+07   55   99          - 5.7916e+07      -  89.4  600s

Explored 305086 nodes (27256712 simplex iterations) in 600.02 seconds (87.64 work units)
Thread count was 32 (of 64 available processors)

Solution count 0

Time limit reached
Best objective -, best bound 5.791637540000e+07, gap -
Gurobi 12.0.3: time limit, without a feasible solution
2.72567e+07 simplex iterations
27 barrier iterations
305086 branching nodes
eps [*,*]
:         1             2             3             4             5         :=
2     .             .            1.63748e-06    .             .
3     .             .             .            9.75081e-07    .
4     .             .             .             .            1.01734e-06
12    .             .             .            2.54334e-06    .
17    .            8.84399e-07    .             .             .
36   1.20671e-06    .             .             .             .
37   2.16983e-05    .             .             .             .

:         6             7             8             9            10         :=
5    9.375e-07      .             .             .             .
6     .            1.52982e-06    .             .             .
18    .             .             .             .            1.98347e-06
21   1.20872e-06    .             .             .             .
22    .            9.30589e-07    .             .             .
24    .             .            1.55016e-06    .             .
25    .             .            1.46316e-06    .             .
28    .             .             .            1.33113e-06    .
30    .             .             .            1.6063e-06     .
31    .             .             .             .            1.30838e-06

:        11            12           13            14            15         :=
3    1.25035e-06    .            .             .             .
5     .             .           2.07269e-06    .             .
10   1.46601e-06    .            .             .             .
12    .             .           1.22863e-06    .             .
13    .             .            .            1.69462e-06    .
19    .            1.8083e-06    .             .             .
20    .             .            .             .            1.724e-06
26    .             .            .             .            1.68309e-06

:        16            17           18            19            20         :=
1     .            1.5487e-06    .             .             .
2     .             .           1.38639e-06    .             .
11    .             .            .            1.38768e-06    .
14    .             .            .             .            3.07221e-06
15   1.30296e-06    .            .             .             .
17    .             .           1.1388e-06     .             .
19    .             .            .             .            1.10503e-06
27   1.81194e-06    .            .             .             .

:        21            22            23            24            25         :=
7     .             .             .            1.23707e-06    .
14   2.27388e-06    .             .             .             .
15    .            2.02472e-06    .             .             .
16    .             .             .             .            2.00511e-06
21    .            1.46274e-06    .             .             .
22    .             .            1.7688e-06     .             .
23    .             .             .             .            2.10689e-06
24    .             .            1.20606e-06    .             .

:        26            27            28            29            30         :=
8     .             .            1.47855e-06    .             .
11   1.99194e-06    .             .             .             .
16    .             .             .            1.52855e-06    .
26    .            1.3128e-06     .             .             .
28    .             .             .            1.45487e-06    .
29    .             .             .             .            2.45183e-06
32    .            2.05681e-06    .             .             .

:        31            32            33            34            35         :=
1    2.10191e-06    .             .             .             .
10    .            2.62922e-06    .             .             .
29    .             .            1.19359e-06    .             .
30    .             .             .             .            1.63578e-06
31    .             .             .            2.37956e-06    .
32    .             .            1.47977e-06    .             .
33    .             .             .            3.19431e-06    .
34    .             .             .             .            1.37415e-06

:        36         :=
9    1.69626e-06
35   1.99362e-06
;

*******************************************************************************

Constraints violation:


Sum of constraints violation: 12281.053909999997
*******************************************************************************

*******************************************************************************

Absolute and relative violations between original and approximation constraint 2:

+-----------------+--------------+--------------------------+------------------------+----------------------+----------------------+
| Constraint ID   |   flow value |   Original Con Violation |   Approx Con Violation |   Absolute Violation |   Relative Violation |
+=================+==============+==========================+========================+======================+======================+
| 1,17            |            0 |                        0 |                      0 |                    0 |                    0 |
+-----------------+--------------+--------------------------+------------------------+----------------------+----------------------+
| 1,31            |            0 |                        0 |                      0 |                    0 |                    0 |
+-----------------+--------------+--------------------------+------------------------+----------------------+----------------------+
| 2,3             |            0 |                        0 |                      0 |                    0 |                    0 |
+-----------------+--------------+--------------------------+------------------------+----------------------+----------------------+
| 2,18            |            0 |                        0 |                      0 |                    0 |                    0 |
+-----------------+--------------+--------------------------+------------------------+----------------------+----------------------+
| 3,4             |            0 |                        0 |                      0 |                    0 |                    0 |
+-----------------+--------------+--------------------------+------------------------+----------------------+----------------------+
| 3,11            |            0 |                        0 |                      0 |                    0 |                    0 |
+-----------------+--------------+--------------------------+------------------------+----------------------+----------------------+
| 4,5             |            0 |                        0 |                      0 |                    0 |                    0 |
+-----------------+--------------+--------------------------+------------------------+----------------------+----------------------+
| 5,6             |            0 |                        0 |                      0 |                    0 |                    0 |
+-----------------+--------------+--------------------------+------------------------+----------------------+----------------------+
| 5,13            |            0 |                        0 |                      0 |                    0 |                    0 |
+-----------------+--------------+--------------------------+------------------------+----------------------+----------------------+
| 6,7             |            0 |                        0 |                      0 |                    0 |                    0 |
+-----------------+--------------+--------------------------+------------------------+----------------------+----------------------+
| 7,24            |            0 |                        0 |                      0 |                    0 |                    0 |
+-----------------+--------------+--------------------------+------------------------+----------------------+----------------------+
| 8,28            |            0 |                        0 |                      0 |                    0 |                    0 |
+-----------------+--------------+--------------------------+------------------------+----------------------+----------------------+
| 9,36            |            0 |                        0 |                      0 |                    0 |                    0 |
+-----------------+--------------+--------------------------+------------------------+----------------------+----------------------+
| 10,11           |            0 |                        0 |                      0 |                    0 |                    0 |
+-----------------+--------------+--------------------------+------------------------+----------------------+----------------------+
| 10,32           |            0 |                        0 |                      0 |                    0 |                    0 |
+-----------------+--------------+--------------------------+------------------------+----------------------+----------------------+
| 11,19           |            0 |                        0 |                      0 |                    0 |                    0 |
+-----------------+--------------+--------------------------+------------------------+----------------------+----------------------+
| 11,26           |            0 |                        0 |                      0 |                    0 |                    0 |
+-----------------+--------------+--------------------------+------------------------+----------------------+----------------------+
| 12,4            |            0 |                        0 |                      0 |                    0 |                    0 |
+-----------------+--------------+--------------------------+------------------------+----------------------+----------------------+
| 12,13           |            0 |                        0 |                      0 |                    0 |                    0 |
+-----------------+--------------+--------------------------+------------------------+----------------------+----------------------+
| 13,14           |            0 |                        0 |                      0 |                    0 |                    0 |
+-----------------+--------------+--------------------------+------------------------+----------------------+----------------------+
| 14,20           |            0 |                        0 |                      0 |                    0 |                    0 |
+-----------------+--------------+--------------------------+------------------------+----------------------+----------------------+
| 14,21           |            0 |                        0 |                      0 |                    0 |                    0 |
+-----------------+--------------+--------------------------+------------------------+----------------------+----------------------+
| 15,16           |            0 |                        0 |                      0 |                    0 |                    0 |
+-----------------+--------------+--------------------------+------------------------+----------------------+----------------------+
| 15,22           |            0 |                        0 |                      0 |                    0 |                    0 |
+-----------------+--------------+--------------------------+------------------------+----------------------+----------------------+
| 16,25           |            0 |                        0 |                      0 |                    0 |                    0 |
+-----------------+--------------+--------------------------+------------------------+----------------------+----------------------+
| 16,29           |            0 |                        0 |                      0 |                    0 |                    0 |
+-----------------+--------------+--------------------------+------------------------+----------------------+----------------------+
| 17,2            |            0 |                        0 |                      0 |                    0 |                    0 |
+-----------------+--------------+--------------------------+------------------------+----------------------+----------------------+
| 17,18           |            0 |                        0 |                      0 |                    0 |                    0 |
+-----------------+--------------+--------------------------+------------------------+----------------------+----------------------+
| 18,10           |            0 |                        0 |                      0 |                    0 |                    0 |
+-----------------+--------------+--------------------------+------------------------+----------------------+----------------------+
| 19,12           |            0 |                        0 |                      0 |                    0 |                    0 |
+-----------------+--------------+--------------------------+------------------------+----------------------+----------------------+
| 19,20           |            0 |                        0 |                      0 |                    0 |                    0 |
+-----------------+--------------+--------------------------+------------------------+----------------------+----------------------+
| 20,15           |            0 |                        0 |                      0 |                    0 |                    0 |
+-----------------+--------------+--------------------------+------------------------+----------------------+----------------------+
| 21,6            |            0 |                        0 |                      0 |                    0 |                    0 |
+-----------------+--------------+--------------------------+------------------------+----------------------+----------------------+
| 21,22           |            0 |                        0 |                      0 |                    0 |                    0 |
+-----------------+--------------+--------------------------+------------------------+----------------------+----------------------+
| 22,7            |            0 |                        0 |                      0 |                    0 |                    0 |
+-----------------+--------------+--------------------------+------------------------+----------------------+----------------------+
| 22,23           |            0 |                        0 |                      0 |                    0 |                    0 |
+-----------------+--------------+--------------------------+------------------------+----------------------+----------------------+
| 23,25           |            0 |                        0 |                      0 |                    0 |                    0 |
+-----------------+--------------+--------------------------+------------------------+----------------------+----------------------+
| 24,8            |            0 |                        0 |                      0 |                    0 |                    0 |
+-----------------+--------------+--------------------------+------------------------+----------------------+----------------------+
| 24,23           |            0 |                        0 |                      0 |                    0 |                    0 |
+-----------------+--------------+--------------------------+------------------------+----------------------+----------------------+
| 25,8            |            0 |                        0 |                      0 |                    0 |                    0 |
+-----------------+--------------+--------------------------+------------------------+----------------------+----------------------+
| 26,15           |            0 |                        0 |                      0 |                    0 |                    0 |
+-----------------+--------------+--------------------------+------------------------+----------------------+----------------------+
| 26,27           |            0 |                        0 |                      0 |                    0 |                    0 |
+-----------------+--------------+--------------------------+------------------------+----------------------+----------------------+
| 27,16           |            0 |                        0 |                      0 |                    0 |                    0 |
+-----------------+--------------+--------------------------+------------------------+----------------------+----------------------+
| 28,9            |            0 |                        0 |                      0 |                    0 |                    0 |
+-----------------+--------------+--------------------------+------------------------+----------------------+----------------------+
| 28,29           |            0 |                        0 |                      0 |                    0 |                    0 |
+-----------------+--------------+--------------------------+------------------------+----------------------+----------------------+
| 29,30           |            0 |                        0 |                      0 |                    0 |                    0 |
+-----------------+--------------+--------------------------+------------------------+----------------------+----------------------+
| 29,33           |            0 |                        0 |                      0 |                    0 |                    0 |
+-----------------+--------------+--------------------------+------------------------+----------------------+----------------------+
| 30,9            |            0 |                        0 |                      0 |                    0 |                    0 |
+-----------------+--------------+--------------------------+------------------------+----------------------+----------------------+
| 30,35           |            0 |                        0 |                      0 |                    0 |                    0 |
+-----------------+--------------+--------------------------+------------------------+----------------------+----------------------+
| 31,10           |            0 |                        0 |                      0 |                    0 |                    0 |
+-----------------+--------------+--------------------------+------------------------+----------------------+----------------------+
| 31,34           |            0 |                        0 |                      0 |                    0 |                    0 |
+-----------------+--------------+--------------------------+------------------------+----------------------+----------------------+
| 32,27           |            0 |                        0 |                      0 |                    0 |                    0 |
+-----------------+--------------+--------------------------+------------------------+----------------------+----------------------+
| 32,33           |            0 |                        0 |                      0 |                    0 |                    0 |
+-----------------+--------------+--------------------------+------------------------+----------------------+----------------------+
| 33,34           |            0 |                        0 |                      0 |                    0 |                    0 |
+-----------------+--------------+--------------------------+------------------------+----------------------+----------------------+
| 34,35           |            0 |                        0 |                      0 |                    0 |                    0 |
+-----------------+--------------+--------------------------+------------------------+----------------------+----------------------+
| 35,36           |            0 |                        0 |                      0 |                    0 |                    0 |
+-----------------+--------------+--------------------------+------------------------+----------------------+----------------------+
| 36,1            |            0 |                        0 |                      0 |                    0 |                    0 |
+-----------------+--------------+--------------------------+------------------------+----------------------+----------------------+
| 37,1            |            0 |                      121 |                    121 |                    0 |                    0 |
+-----------------+--------------+--------------------------+------------------------+----------------------+----------------------+

Sum of violation of original headloss constraint: 121.0
Sum of violation of approx headloss constraint: 121.0

Con2 sum of absolute violation between original function and approximate function: 0.0
Con2 sum of relative violation between original function and approximate function: 0.0
*******************************************************************************

Total cost using gurobi: 0.0
gurobi solve time: 600.53 seconds
*******************************************************************************

